(declare-sort sk_a 0)
(declare-datatypes ()
  ((list (nil) (cons (head sk_a) (tail list)))))
(declare-datatypes () ((Nat (Z) (S (p Nat)))))
(declare-fun plus (Nat Nat) Nat)
(declare-fun drop (Nat list) list)
(assert
  (not
    (forall ((n Nat) (m Nat) (xs list))
      (= (drop n (drop m xs)) (drop (plus n m) xs)))))
(assert
  (forall ((x Nat) (y Nat))
    (= (plus x y) (ite (is-S x) (S (plus (p x) y)) y))))
(assert
  (forall ((x Nat) (y list))
    (= (drop x y)
      (ite (is-S x) (ite (is-cons y) (drop (p x) (tail y)) nil) y))))
(check-sat)
